regression_itp/log-2023-02-20-10-22-36/bug_mask_ite_nested.smt2.out
unsat
((or (<= 0 z) (or (<= 0 z) (not (<= 0 (* -1 z))))))
